numero_plantas = 2;
numero_clientes = 5;
numero_dias = 3;
costos = [25.0, 35.0];
capacidades = [400.0, 800.0];
G = 50.0;
demanda = [| 50.0, 60.0, 70.0
           | 80.0, 90.0, 100.0
           | 30.0, 40.0, 50.0
           | 60.0, 70.0, 80.0
           | 40.0, 50.0, 60.0|];
pagos = [90.0, 95.0, 100.0, 85.0, 80.0];
porcentaje_regimen_alto = [100.0, 80.0];
max_dias_consecutivos_regimen = [1, 2];